NAME : rnd83_20.tsp
TYPE : TSP
DIMENSION : 20
EDGE_WEIGHT_TYPE : EUC_2D
NODE_COORD_SECTION
0 887 201
1 569 435
2 195 240
3 600 527
4 787 563
5 530 699
6 335 237
7 501 367
8 346 410
9 7 903
10 966 528
11 263 346
12 306 15
13 588 764
14 290 117
15 510 688
16 973 698
17 777 124
18 486 383
19 568 477
